
******************************************************************************
This program contains Ipopt, a library for large-scale nonlinear optimization.
 Ipopt is released as open source code under the Eclipse Public License (EPL).
         For more information visit http://projects.coin-or.org/Ipopt
******************************************************************************

This is Ipopt version 3.12.6, running with linear solver ma57.

Number of nonzeros in equality constraint Jacobian...:        0
Number of nonzeros in inequality constraint Jacobian.:        0
Number of nonzeros in Lagrangian Hessian.............:       10

Total number of variables............................:        4
                     variables with only lower bounds:        2
                variables with lower and upper bounds:        0
                     variables with only upper bounds:        0
Total number of equality constraints.................:        0
Total number of inequality constraints...............:        0
        inequality constraints with only lower bounds:        0
   inequality constraints with lower and upper bounds:        0
        inequality constraints with only upper bounds:        0

iter    objective    inf_pr   inf_du lg(mu)  ||d||  lg(rg) alpha_du alpha_pr  ls
   0  1.0854891e+04 0.00e+00 1.00e+02  -1.0 0.00e+00    -  0.00e+00 0.00e+00   0
   1  8.0994015e+03 0.00e+00 8.28e+01  -1.0 8.28e-01   2.0 1.00e+00 1.00e+00f  1
   2  4.3044246e+03 0.00e+00 5.10e+01  -1.0 1.53e+00   1.5 1.00e+00 1.00e+00f  1
   3  3.3084558e+03 0.00e+00 4.12e+01  -1.0 4.64e-01   1.9 1.00e+00 1.00e+00f  1
   4  2.9097830e+03 0.00e+00 9.89e+01  -1.0 7.03e-01   2.4 1.00e+00 2.37e-01f  2
   5  2.8206572e+03 0.00e+00 1.14e+02  -1.0 2.24e-02   3.7 1.00e+00 1.00e+00f  1
   6  2.5578511e+03 0.00e+00 1.31e+02  -1.0 1.17e-01   3.2 1.00e+00 5.00e-01f  2
   7  2.4641683e+03 0.00e+00 1.87e+02  -1.0 6.99e-02   2.7 1.00e+00 5.00e-01f  2
   8  1.3756931e+02 0.00e+00 9.07e+01  -1.0 1.58e+01    -  1.00e+00 1.00e+00f  1
   9  6.6478852e+01 0.00e+00 4.68e+01  -1.0 1.47e+00    -  1.00e+00 1.00e+00f  1
iter    objective    inf_pr   inf_du lg(mu)  ||d||  lg(rg) alpha_du alpha_pr  ls
  10  2.7807076e+01 0.00e+00 2.18e+01  -1.0 1.40e+00    -  1.00e+00 1.00e+00f  1
  11  9.2051480e+00 0.00e+00 9.53e+00  -1.0 1.40e+00    -  1.00e+00 1.00e+00f  1
  12  2.2590559e+00 0.00e+00 3.56e+00  -1.0 1.38e+00    -  1.00e+00 1.00e+00f  1
  13  6.8382535e-01 0.00e+00 1.06e+00  -1.0 1.18e+00    -  1.00e+00 1.00e+00f  1
  14  7.7245152e-01 0.00e+00 1.93e-01  -1.0 7.06e-01    -  1.00e+00 1.00e+00f  1
  15  6.2363175e-01 0.00e+00 6.67e-03  -2.5 5.50e-01    -  1.00e+00 1.00e+00f  1
  16  6.2326740e-01 0.00e+00 1.62e-05  -3.8 6.73e-03    -  1.00e+00 1.00e+00f  1
  17  6.2326690e-01 0.00e+00 9.63e-08  -5.7 9.31e-04    -  1.00e+00 1.00e+00f  1
  18  6.2326690e-01 0.00e+00 1.75e-11  -8.6 1.25e-05    -  1.00e+00 1.00e+00f  1

Number of Iterations....: 18

                                   (scaled)                 (unscaled)
Objective...............:   1.9518855707017915e-02    6.2326690420499742e-01
Dual infeasibility......:   1.7532218010365934e-11    5.5983052527198265e-10
Constraint violation....:   0.0000000000000000e+00    0.0000000000000000e+00
Complementarity.........:   2.5088587424838726e-09    8.0111695326142971e-08
Overall NLP error.......:   2.5088587424838726e-09    8.0111695326142971e-08


Number of objective function evaluations             = 34
Number of objective gradient evaluations             = 19
Number of equality constraint evaluations            = 0
Number of inequality constraint evaluations          = 0
Number of equality constraint Jacobian evaluations   = 0
Number of inequality constraint Jacobian evaluations = 0
Number of Lagrangian Hessian evaluations             = 18
Total CPU secs in IPOPT (w/o function evaluations)   =      0.003
Total CPU secs in NLP function evaluations           =      0.000

EXIT: Optimal Solution Found.
Note: The following floating-point exceptions are signalling: IEEE_INVALID_FLAG IEEE_DIVIDE_BY_ZERO

 ** SUBROUTINE CUTEST_csetup: Warning. The problem has no general constraints. 
 ** Other tools may be preferable ** 

************************ CUTEst statistics ************************


 Package used            :  IPOPT
 Problem                 :  PALMER2B  
 # variables             =               4
 # constraints           =               0
 # objective functions   =        0.5400000E+02
 # objective gradients   =        0.2000000E+02
 # objective Hessians    =        0.1900000E+02
 # Hessian-vector prdct  =        0.0000000E+00
 # constraints functions =        0.0000000E+00
 # constraints gradients =        0.0000000E+00
 # constraints Hessians  =        0.0000000E+00
 Exit code               =               0
 Final f                 =   0.6232669E+00
 Set up time             =            0.00 seconds
 Solve time              =            0.02 seconds


******************************************************************

System Time =       0.0060000001 s.
